100
32
24
27
15
24
19
22
15
14
21
8
13
32
8
9
7
15
8
29
16
11
16
10
26
32
2
6
7
31
11
6
11
10
21
32
22
1
8
2
12
8
14
23
15
15
27
3
9
15
22
14
16
16
26
31
21
10
5
7
31
31
27
29
10
9
19
24
25
32
27
10
16
6
31
16
21
10
4
2
19
18
25
32
28
22
4
4
10
25
2
31
22
4
29
24
31
24
1
26
30
20